Welcome to the CBC MILP Solver 
Version: Trunk
Build Date: Apr 16 2020 

Starting solution of the Linear programming relaxation problem using Primal Simplex

Using Python-MIP package version 1.8.1
Machines:  3 Jobs:  3
Order: 
Job  0 : machine 1 ( 7 ) machine 2 ( 7 ) machine 0 ( 1 ) 
Job  1 : machine 1 ( 4 ) machine 0 ( 3 ) machine 2 ( 7 ) 
Job  2 : machine 1 ( 7 ) machine 2 ( 6 ) machine 0 ( 2 ) 
K:  33
Job  0 , e: machine  0 ( 14 ) machine  1 ( 0 ) machine  2 ( 7 ) 
Job  1 , e: machine  0 ( 4 ) machine  1 ( 0 ) machine  2 ( 7 ) 
Job  2 , e: machine  0 ( 13 ) machine  1 ( 0 ) machine  2 ( 7 ) 
Job  0 , f: machine  0 ( 0 ) machine  1 ( 8 ) machine  2 ( 1 ) 
Job  1 , f: machine  0 ( 7 ) machine  1 ( 10 ) machine  2 ( 0 ) 
Job  2 , f: machine  0 ( 0 ) machine  1 ( 8 ) machine  2 ( 2 ) 
EST and LST:
Job: 0 Machine: 0 EST: 14 LST: 32
Job: 0 Machine: 1 EST: 0 LST: 18
Job: 0 Machine: 2 EST: 7 LST: 25
Job: 1 Machine: 0 EST: 4 LST: 23
Job: 1 Machine: 1 EST: 0 LST: 19
Job: 1 Machine: 2 EST: 7 LST: 26
Job: 2 Machine: 0 EST: 13 LST: 31
Job: 2 Machine: 1 EST: 0 LST: 18
Job: 2 Machine: 2 EST: 7 LST: 25
Order:
Job: 0 Machine: 0 = 2 
Job: 0 Machine: 1 = 0 
Job: 0 Machine: 2 = 1 
Job: 1 Machine: 0 = 1 
Job: 1 Machine: 1 = 0 
Job: 1 Machine: 2 = 2 
Job: 2 Machine: 0 = 2 
Job: 2 Machine: 1 = 0 
Job: 2 Machine: 2 = 1 
Distances:
Job 0, Machine 1 -> Machine 2: distance 7
Job 0, Machine 1 -> Machine 0: distance 14
Job 0, Machine 2 -> Machine 0: distance 7
Job 1, Machine 1 -> Machine 0: distance 4
Job 1, Machine 1 -> Machine 2: distance 7
Job 1, Machine 0 -> Machine 2: distance 3
Job 2, Machine 1 -> Machine 2: distance 7
Job 2, Machine 1 -> Machine 0: distance 13
Job 2, Machine 2 -> Machine 0: distance 6
McCormic linearization
14.0 13.0 2
0.0 0.0 4
0.0 0.0 7
0.0 0.0 7
7.0 7.0 7
7.0 7.0 6
7.0 7.0 6
[(0, 1), (1, 2), (0, 0), (0, 2), (2, 1), (2, 0), (2, 2), (1, 1)]
obj:  0.0
solutions:  1
+ 0.14285714285714285x(0,1) + 0.14285714285714285x(2,1) 
C:  18.5
x(0,0) = 17.50	 x(0,1) = 3.50	 x(0,2) = 10.50	 
x(1,0) = 8.50	 x(1,1) = 4.50	 x(1,2) = 11.50	 
x(2,0) = 16.50	 x(2,1) = 3.50	 x(2,2) = 10.50	 
y(0,1,0) = 0.00	 y(1,0,0) = 1.00	 
y(0,2,0) = 0.90	 y(2,0,0) = 0.10	 
y(1,2,0) = 0.59	 y(2,1,0) = 0.41	 
y(0,1,1) = 0.22	 y(1,0,1) = 0.78	 
y(0,2,1) = 0.50	 y(2,0,1) = 0.50	 
y(1,2,1) = 0.36	 y(2,1,1) = 0.64	 
y(0,1,2) = 0.50	 y(1,0,2) = 0.50	 
y(0,2,2) = 0.42	 y(2,0,2) = 0.58	 
y(1,2,2) = 0.50	 y(2,1,2) = 0.50	 
17.500000000000004 16.5 2
3.500000000000003 3.4999999999999973 7
4.499999999999999 3.4999999999999973 7
10.500000000000004 10.499999999999998 6
11.5 10.499999999999998 6
obj:  0.6380952380952382
solutions:  1
+ 0.06666666666666668x(0,1) + 0.06666666666666667x(2,1) + 0.0380952380952381x(1,1) 
[(0, 1), (1, 2), (0, 0), (0, 2), (2, 1), (2, 0), (2, 2), (1, 1)]
cliques:  1 mip: 20
C:  20.983660130718956
x(0,0) = 19.87	 x(0,1) = 5.87	 x(0,2) = 12.87	 
x(1,0) = 9.51	 x(1,1) = 5.51	 x(1,2) = 12.51	 
x(2,0) = 18.98	 x(2,1) = 5.98	 x(2,2) = 12.98	 
y(0,1,0) = 0.00	 y(1,0,0) = 1.00	 
y(0,2,0) = 0.06	 y(2,0,0) = 0.94	 
y(1,2,0) = 0.62	 y(2,1,0) = 0.38	 
y(0,1,1) = 0.71	 y(1,0,1) = 0.29	 
y(0,2,1) = 0.31	 y(2,0,1) = 0.69	 
y(1,2,1) = 0.30	 y(2,1,1) = 0.70	 
y(0,1,2) = 0.31	 y(1,0,2) = 0.69	 
y(0,2,2) = 0.25	 y(2,0,2) = 0.75	 
y(1,2,2) = 0.71	 y(2,1,2) = 0.29	 
19.866013071895424 18.98366013071896 2
5.866013071895424 5.513071895424831 4
12.866013071895425 12.51307189542483 7
obj:  0.9361009361009358
solutions:  1
+ 0.025641025641025633x(1,2) + 0.025641025641025637x(0,2) + 0.021978021978021983x(2,2) 
[(0, 1), (1, 2), (0, 0), (0, 2), (2, 1), (2, 0), (2, 2), (1, 1)]
cliques:  1 mip: 52
C:  22.463941299790356
x(0,0) = 21.46	 x(0,1) = 7.46	 x(0,2) = 14.46	 
x(1,0) = 10.82	 x(1,1) = 3.56	 x(1,2) = 13.82	 
x(2,0) = 18.50	 x(2,1) = 5.50	 x(2,2) = 12.50	 
y(0,1,0) = 0.00	 y(1,0,0) = 1.00	 
y(0,2,0) = 0.00	 y(2,0,0) = 1.00	 
y(1,2,0) = 0.63	 y(2,1,0) = 0.37	 
y(0,1,1) = 0.02	 y(1,0,1) = 0.98	 
y(0,2,1) = 0.20	 y(2,0,1) = 0.80	 
y(1,2,1) = 0.74	 y(2,1,1) = 0.26	 
y(0,1,2) = 0.24	 y(1,0,2) = 0.76	 
y(0,2,2) = 0.64	 y(2,0,2) = 0.36	 
y(1,2,2) = 0.68	 y(2,1,2) = 0.32	 
7.463941299790351 3.5601677148846966 4
7.463941299790351 5.501677148846961 7
14.46394129979035 13.820335429769397 7
14.46394129979035 12.50167714884696 6
13.820335429769397 12.50167714884696 6
obj:  0.9999999999999998
erro
[(0, 1), (1, 2), (2, 1), (1, 1), (2, 2), (0, 2)]
cliques:  0 mip: 49
C:  23.71334677505965
x(0,0) = 22.71	 x(0,1) = 6.34	 x(0,2) = 13.34	 
x(1,0) = 13.71	 x(1,1) = 6.94	 x(1,2) = 16.71	 
x(2,0) = 18.10	 x(2,1) = 4.70	 x(2,2) = 12.10	 
y(0,1,0) = 0.00	 y(1,0,0) = 1.00	 
y(0,2,0) = 0.00	 y(2,0,0) = 1.00	 
y(1,2,0) = 0.51	 y(2,1,0) = 0.49	 
y(0,1,1) = 0.45	 y(1,0,1) = 0.55	 
y(0,2,1) = 0.46	 y(2,0,1) = 0.54	 
y(1,2,1) = 0.51	 y(2,1,1) = 0.49	 
y(0,1,2) = 0.86	 y(1,0,2) = 0.14	 
y(0,2,2) = 0.34	 y(2,0,2) = 0.66	 
y(1,2,2) = 0.06	 y(2,1,2) = 0.94	 
6.337783447954591 4.696029251481262 7
6.940827775987256 4.696029251481262 7
13.33778344795459 12.097245918059105 6
16.713346775059648 12.097245918059105 6
obj:  1.0
erro
[(0, 1), (1, 2), (2, 1), (1, 1), (2, 2), (0, 2)]
cliques:  0 mip: 48
C:  23.999999999999996
x(0,0) = 23.00	 x(0,1) = 4.95	 x(0,2) = 11.95	 
x(1,0) = 13.67	 x(1,1) = 7.09	 x(1,2) = 16.67	 
x(2,0) = 19.69	 x(2,1) = 6.00	 x(2,2) = 13.69	 
y(0,1,0) = 0.00	 y(1,0,0) = 1.00	 
y(0,2,0) = 0.00	 y(2,0,0) = 1.00	 
y(1,2,0) = 0.78	 y(2,1,0) = 0.22	 
y(0,1,1) = 0.71	 y(1,0,1) = 0.29	 
y(0,2,1) = 0.57	 y(2,0,1) = 0.43	 
y(1,2,1) = 0.61	 y(2,1,1) = 0.39	 
y(0,1,2) = 0.91	 y(1,0,2) = 0.09	 
y(0,2,2) = 0.58	 y(2,0,2) = 0.42	 
y(1,2,2) = 0.13	 y(2,1,2) = 0.87	 
7.087765158835595 6.000906772802028 7
16.66709546166804 13.69406061941514 6
obj:  1.0
erro
[(0, 1), (1, 2), (2, 1), (1, 1), (2, 2), (0, 2)]
cliques:  0 mip: 39
C:  24.14517820831403
x(0,0) = 21.15	 x(0,1) = 2.15	 x(0,2) = 9.15	 
x(1,0) = 14.15	 x(1,1) = 10.15	 x(1,2) = 17.15	 
x(2,0) = 22.15	 x(2,1) = 7.06	 x(2,2) = 16.15	 
y(0,1,0) = 0.00	 y(1,0,0) = 1.00	 
y(0,2,0) = 1.00	 y(2,0,0) = -0.00	 
y(1,2,0) = 0.85	 y(2,1,0) = 0.15	 
y(0,1,1) = 1.00	 y(1,0,1) = -0.00	 
y(0,2,1) = 0.69	 y(2,0,1) = 0.31	 
y(1,2,1) = 0.62	 y(2,1,1) = 0.38	 
y(0,1,2) = 1.00	 y(1,0,2) = 0.00	 
y(0,2,2) = 1.00	 y(2,0,2) = -0.00	 
y(1,2,2) = 0.21	 y(2,1,2) = 0.79	 
10.14517820831459 7.057577101220647 7
17.14517820831402 16.145178208314142 6
obj:  1.314679329933503
erro
[(0, 1), (1, 2), (2, 1), (2, 2)]
cliques:  0 mip: 20
C:  25.0
x(0,0) = 22.00	 x(0,1) = 2.71	 x(0,2) = 12.67	 
x(1,0) = 12.73	 x(1,1) = 8.73	 x(1,2) = 15.73	 
x(2,0) = 23.00	 x(2,1) = 7.30	 x(2,2) = 14.30	 
y(0,1,0) = 0.00	 y(1,0,0) = 1.00	 
y(0,2,0) = 1.00	 y(2,0,0) = 0.00	 
y(1,2,0) = 0.70	 y(2,1,0) = 0.30	 
y(0,1,1) = 0.55	 y(1,0,1) = 0.45	 
y(0,2,1) = 0.61	 y(2,0,1) = 0.39	 
y(1,2,1) = 0.51	 y(2,1,1) = 0.49	 
y(0,1,2) = 0.84	 y(1,0,2) = 0.16	 
y(0,2,2) = 0.56	 y(2,0,2) = 0.44	 
y(1,2,2) = 0.46	 y(2,1,2) = 0.54	 
8.73308293156587 7.3032738602622125 7
15.733082931565871 14.303273860262214 6
obj:  1.0
erro
[(0, 1), (1, 2), (2, 1), (1, 1), (2, 2), (0, 2)]
cliques:  0 mip: 35
C:  25.0
x(0,0) = 22.07	 x(0,1) = 6.68	 x(0,2) = 15.07	 
x(1,0) = 13.71	 x(1,1) = 6.92	 x(1,2) = 16.71	 
x(2,0) = 22.36	 x(2,1) = 4.36	 x(2,2) = 11.60	 
y(0,1,0) = 0.00	 y(1,0,0) = 1.00	 
y(0,2,0) = 0.96	 y(2,0,0) = 0.04	 
y(1,2,0) = 0.76	 y(2,1,0) = 0.24	 
y(0,1,1) = 0.18	 y(1,0,1) = 0.82	 
y(0,2,1) = 0.19	 y(2,0,1) = 0.81	 
y(1,2,1) = 0.18	 y(2,1,1) = 0.82	 
y(0,1,2) = 0.79	 y(1,0,2) = 0.21	 
y(0,2,2) = 0.11	 y(2,0,2) = 0.89	 
y(1,2,2) = 0.19	 y(2,1,2) = 0.81	 
6.679575768216472 4.364801337849632 7
6.922340064384319 4.364801337849632 7
15.071167861592953 11.603102166455557 6
16.714345821371683 11.603102166455557 6
obj:  0.9999999999999996
erro
[(0, 1), (1, 2), (0, 0), (0, 2), (2, 1), (2, 0), (2, 2), (1, 1)]
cliques:  0 mip: 43
C:  24.999999999999996
x(0,0) = 22.64	 x(0,1) = 6.36	 x(0,2) = 15.64	 
x(1,0) = 13.96	 x(1,1) = 7.90	 x(1,2) = 16.96	 
x(2,0) = 17.22	 x(2,1) = 4.12	 x(2,2) = 11.22	 
y(0,1,0) = 0.00	 y(1,0,0) = 1.00	 
y(0,2,0) = 0.68	 y(2,0,0) = 0.32	 
y(1,2,0) = 0.99	 y(2,1,0) = 0.01	 
y(0,1,1) = 0.38	 y(1,0,1) = 0.62	 
y(0,2,1) = 0.19	 y(2,0,1) = 0.81	 
y(1,2,1) = 0.49	 y(2,1,1) = 0.51	 
y(0,1,2) = 0.68	 y(1,0,2) = 0.32	 
y(0,2,2) = 0.19	 y(2,0,2) = 0.81	 
y(1,2,2) = 0.21	 y(2,1,2) = 0.79	 
6.361699531295993 4.124947443129756 7
7.89836779475494 4.124947443129756 7
15.64197024522187 11.222267793003425 6
16.959595148409726 11.222267793003425 6
obj:  0.9999999999999997
erro
[(0, 1), (1, 2), (2, 1), (1, 1), (2, 2), (0, 2)]
cliques:  0 mip: 43
C:  25.0
x(0,0) = 23.68	 x(0,1) = 5.98	 x(0,2) = 13.47	 
x(1,0) = 12.55	 x(1,1) = 8.55	 x(1,2) = 15.55	 
x(2,0) = 18.93	 x(2,1) = 5.93	 x(2,2) = 12.93	 
y(0,1,0) = 0.00	 y(1,0,0) = 1.00	 
y(0,2,0) = 0.16	 y(2,0,0) = 0.84	 
y(1,2,0) = 0.29	 y(2,1,0) = 0.71	 
y(0,1,1) = 0.51	 y(1,0,1) = 0.49	 
y(0,2,1) = 0.38	 y(2,0,1) = 0.62	 
y(1,2,1) = 0.56	 y(2,1,1) = 0.44	 
y(0,1,2) = 0.80	 y(1,0,2) = 0.20	 
y(0,2,2) = 0.27	 y(2,0,2) = 0.73	 
y(1,2,2) = 0.26	 y(2,1,2) = 0.74	 
5.98231778886178 5.926193502353251 7
8.548074522256549 5.926193502353251 7
13.4741445974815 12.926193502353252 6
15.548074522256552 12.926193502353252 6
obj:  1.028251629495552
erro
[(0, 1), (1, 2), (2, 1), (1, 1), (2, 2), (0, 2)]
cliques:  0 mip: 43
C:  25.0
x(0,0) = 23.70	 x(0,1) = 6.80	 x(0,2) = 13.80	 
x(1,0) = 15.00	 x(1,1) = 5.72	 x(1,2) = 18.00	 
x(2,0) = 19.18	 x(2,1) = 4.93	 x(2,2) = 13.18	 
y(0,1,0) = 0.00	 y(1,0,0) = 1.00	 
y(0,2,0) = 0.15	 y(2,0,0) = 0.85	 
y(1,2,0) = 0.95	 y(2,1,0) = 0.05	 
y(0,1,1) = 0.18	 y(1,0,1) = 0.82	 
y(0,2,1) = 0.21	 y(2,0,1) = 0.79	 
y(1,2,1) = 0.66	 y(2,1,1) = 0.34	 
y(0,1,2) = 0.89	 y(1,0,2) = 0.11	 
y(0,2,2) = 0.30	 y(2,0,2) = 0.70	 
y(1,2,2) = 0.24	 y(2,1,2) = 0.76	 
6.800438812456007 5.720489415835714 4
6.800438812456007 4.9307100927807275 7
5.720489415835714 4.9307100927807275 7
13.800438812456006 13.183699414487071 6
18.0 13.183699414487071 6
obj:  1.0
erro
[(0, 1), (1, 2), (2, 1), (1, 1), (2, 2), (0, 2)]
cliques:  0 mip: 42
C:  25.000000000000004
x(0,0) = 23.74	 x(0,1) = 5.18	 x(0,2) = 16.45	 
x(1,0) = 15.00	 x(1,1) = 9.68	 x(1,2) = 18.00	 
x(2,0) = 19.56	 x(2,1) = 4.29	 x(2,2) = 11.44	 
y(0,1,0) = 0.00	 y(1,0,0) = 1.00	 
y(0,2,0) = 0.13	 y(2,0,0) = 0.87	 
y(1,2,0) = 0.93	 y(2,1,0) = 0.07	 
y(0,1,1) = 0.74	 y(1,0,1) = 0.26	 
y(0,2,1) = 0.46	 y(2,0,1) = 0.54	 
y(1,2,1) = 0.13	 y(2,1,1) = 0.87	 
y(0,1,2) = 0.51	 y(1,0,2) = 0.49	 
y(0,2,2) = 0.08	 y(2,0,2) = 0.92	 
y(1,2,2) = 0.08	 y(2,1,2) = 0.92	 
5.17914460344697 4.2869641615148275 7
9.684309661316856 4.2869641615148275 7
16.448111341222354 11.442152911661424 6
obj:  1.0
erro
[(0, 1), (1, 2), (2, 1), (1, 1), (2, 2), (0, 2)]
cliques:  0 mip: 44
C:  25.000000000000004
x(0,0) = 23.14	 x(0,1) = 5.66	 x(0,2) = 16.14	 
x(1,0) = 15.00	 x(1,1) = 9.04	 x(1,2) = 18.00	 
x(2,0) = 18.19	 x(2,1) = 4.17	 x(2,2) = 11.17	 
y(0,1,0) = 0.00	 y(1,0,0) = 1.00	 
y(0,2,0) = 0.29	 y(2,0,0) = 0.71	 
y(1,2,0) = 0.99	 y(2,1,0) = 0.01	 
y(0,1,1) = 0.61	 y(1,0,1) = 0.39	 
y(0,2,1) = 0.53	 y(2,0,1) = 0.47	 
y(1,2,1) = 0.19	 y(2,1,1) = 0.81	 
y(0,1,2) = 0.79	 y(1,0,2) = 0.21	 
y(0,2,2) = 0.08	 y(2,0,2) = 0.92	 
y(1,2,2) = 0.06	 y(2,1,2) = 0.94	 
5.662490436093115 4.174596793773937 7
9.035097347732654 4.174596793773937 7
16.139628292543584 11.174596793773937 6
obj:  0.9999999999999999
erro
[(0, 1), (1, 2), (2, 1), (1, 1), (2, 2), (0, 2)]
cliques:  0 mip: 43
C:  25.000000000000004
x(0,0) = 22.63	 x(0,1) = 3.62	 x(0,2) = 13.49	 
x(1,0) = 13.84	 x(1,1) = 9.84	 x(1,2) = 16.84	 
x(2,0) = 20.15	 x(2,1) = 5.75	 x(2,2) = 12.75	 
y(0,1,0) = 0.00	 y(1,0,0) = 1.00	 
y(0,2,0) = 0.68	 y(2,0,0) = 0.32	 
y(1,2,0) = 0.44	 y(2,1,0) = 0.56	 
y(0,1,1) = 0.77	 y(1,0,1) = 0.23	 
y(0,2,1) = 0.81	 y(2,0,1) = 0.19	 
y(1,2,1) = 0.28	 y(2,1,1) = 0.72	 
y(0,1,2) = 0.56	 y(1,0,2) = 0.44	 
y(0,2,2) = 0.46	 y(2,0,2) = 0.54	 
y(1,2,2) = 0.15	 y(2,1,2) = 0.85	 
9.840249045002857 5.7522272664523575 7
13.492845171759887 12.752227266452357 6
16.840249045002853 12.752227266452357 6
obj:  1.0000000000000002
erro
[(0, 1), (1, 2), (2, 1), (1, 1), (2, 2), (0, 2)]
cliques:  0 mip: 45
C:  25.000000000000004
x(0,0) = 23.05	 x(0,1) = 6.81	 x(0,2) = 13.81	 
x(1,0) = 13.09	 x(1,1) = 9.09	 x(1,2) = 18.00	 
x(2,0) = 17.83	 x(2,1) = 4.83	 x(2,2) = 11.83	 
y(0,1,0) = 0.00	 y(1,0,0) = 1.00	 
y(0,2,0) = 0.48	 y(2,0,0) = 0.52	 
y(1,2,0) = 0.40	 y(2,1,0) = 0.60	 
y(0,1,1) = 0.62	 y(1,0,1) = 0.38	 
y(0,2,1) = 0.25	 y(2,0,1) = 0.75	 
y(1,2,1) = 0.37	 y(2,1,1) = 0.63	 
y(0,1,2) = 0.77	 y(1,0,2) = 0.23	 
y(0,2,2) = 0.39	 y(2,0,2) = 0.61	 
y(1,2,2) = 0.17	 y(2,1,2) = 0.83	 
6.810381370366028 4.82910869525751 7
9.091536036555329 4.82910869525751 7
13.810381370366029 11.829108695257508 6
obj:  1.0756312152531404
erro
[(0, 1), (1, 2), (2, 1), (1, 1), (2, 2), (0, 2)]
cliques:  0 mip: 44
C:  25.0
x(0,0) = 23.35	 x(0,1) = 6.97	 x(0,2) = 14.79	 
x(1,0) = 10.47	 x(1,1) = 6.47	 x(1,2) = 18.00	 
x(2,0) = 17.36	 x(2,1) = 4.36	 x(2,2) = 11.36	 
y(0,1,0) = 0.00	 y(1,0,0) = 1.00	 
y(0,2,0) = 0.32	 y(2,0,0) = 0.68	 
y(1,2,0) = 1.00	 y(2,1,0) = 0.00	 
y(0,1,1) = 0.60	 y(1,0,1) = 0.40	 
y(0,2,1) = 0.20	 y(2,0,1) = 0.80	 
y(1,2,1) = 0.20	 y(2,1,1) = 0.80	 
y(0,1,2) = 0.65	 y(1,0,2) = 0.35	 
y(0,2,2) = 0.11	 y(2,0,2) = 0.89	 
y(1,2,2) = 0.02	 y(2,1,2) = 0.98	 
6.974531793818347 6.468163119993406 4
6.974531793818347 4.356061460592482 7
6.468163119993406 4.356061460592482 7
14.793574926336303 11.35606146059248 6
obj:  1.0017790977223755
erro
[(0, 1), (1, 2), (2, 1), (1, 1), (2, 2), (0, 2)]
cliques:  0 mip: 43
C:  25.0
x(0,0) = 22.58	 x(0,1) = 5.17	 x(0,2) = 12.17	 
x(1,0) = 13.55	 x(1,1) = 9.55	 x(1,2) = 18.00	 
x(2,0) = 17.78	 x(2,1) = 4.38	 x(2,2) = 11.38	 
y(0,1,0) = 0.00	 y(1,0,0) = 1.00	 
y(0,2,0) = 0.71	 y(2,0,0) = 0.29	 
y(1,2,0) = 0.86	 y(2,1,0) = 0.14	 
y(0,1,1) = 0.71	 y(1,0,1) = 0.29	 
y(0,2,1) = 0.26	 y(2,0,1) = 0.74	 
y(1,2,1) = 0.58	 y(2,1,1) = 0.42	 
y(0,1,2) = 0.95	 y(1,0,2) = 0.05	 
y(0,2,2) = 0.22	 y(2,0,2) = 0.78	 
y(1,2,2) = 0.05	 y(2,1,2) = 0.95	 
5.1667823365477465 4.377810287316212 7
9.546962908238072 4.377810287316212 7
12.16678233654753 11.377810287316212 6
obj:  1.0
erro
[(0, 1), (1, 2), (2, 1), (1, 1), (2, 2), (0, 2)]
cliques:  0 mip: 42
C:  25.0
x(0,0) = 23.20	 x(0,1) = 6.70	 x(0,2) = 13.70	 
x(1,0) = 12.70	 x(1,1) = 8.70	 x(1,2) = 18.00	 
x(2,0) = 18.52	 x(2,1) = 4.64	 x(2,2) = 12.24	 
y(0,1,0) = 0.00	 y(1,0,0) = 1.00	 
y(0,2,0) = 0.40	 y(2,0,0) = 0.60	 
y(1,2,0) = 0.90	 y(2,1,0) = 0.10	 
y(0,1,1) = 0.54	 y(1,0,1) = 0.46	 
y(0,2,1) = 0.20	 y(2,0,1) = 0.80	 
y(1,2,1) = 0.48	 y(2,1,1) = 0.52	 
y(0,1,2) = 0.87	 y(1,0,2) = 0.13	 
y(0,2,2) = 0.45	 y(2,0,2) = 0.55	 
y(1,2,2) = 0.05	 y(2,1,2) = 0.95	 
6.695794201147576 4.641069747095923 7
8.703782156070693 4.641069747095923 7
13.695794201147574 12.235022123195971 6
18.000000000000004 12.235022123195971 6
obj:  1.081614256949483
erro
[(0, 1), (1, 2), (2, 1), (1, 1), (2, 2), (0, 2)]
cliques:  0 mip: 46
C:  24.999999999999996
x(0,0) = 23.44	 x(0,1) = 6.15	 x(0,2) = 14.02	 
x(1,0) = 13.59	 x(1,1) = 9.59	 x(1,2) = 18.00	 
x(2,0) = 18.78	 x(2,1) = 3.37	 x(2,2) = 12.34	 
y(0,1,0) = 0.00	 y(1,0,0) = 1.00	 
y(0,2,0) = 0.28	 y(2,0,0) = 0.72	 
y(1,2,0) = 0.93	 y(2,1,0) = 0.07	 
y(0,1,1) = 0.72	 y(1,0,1) = 0.28	 
y(0,2,1) = 0.29	 y(2,0,1) = 0.71	 
y(1,2,1) = 0.13	 y(2,1,1) = 0.87	 
y(0,1,2) = 0.88	 y(1,0,2) = 0.12	 
y(0,2,2) = 0.40	 y(2,0,2) = 0.60	 
y(1,2,2) = 0.07	 y(2,1,2) = 0.93	 
6.148622962359193 3.368874783817146 7
9.594378944191396 3.368874783817146 7
14.021784909038125 12.343587906725755 6
17.999999999999993 12.343587906725755 6
obj:  0.9999999999999997
erro
[(0, 1), (1, 2), (2, 1), (1, 1), (2, 2), (0, 2)]
cliques:  0 mip: 46
C:  24.999999999999996
x(0,0) = 23.74	 x(0,1) = 7.34	 x(0,2) = 14.34	 
x(1,0) = 10.99	 x(1,1) = 6.99	 x(1,2) = 18.00	 
x(2,0) = 20.08	 x(2,1) = 4.43	 x(2,2) = 12.41	 
y(0,1,0) = 0.00	 y(1,0,0) = 1.00	 
y(0,2,0) = 0.13	 y(2,0,0) = 0.87	 
y(1,2,0) = 0.48	 y(2,1,0) = 0.52	 
y(0,1,1) = 0.49	 y(1,0,1) = 0.51	 
y(0,2,1) = 0.26	 y(2,0,1) = 0.74	 
y(1,2,1) = 0.21	 y(2,1,1) = 0.79	 
y(0,1,2) = 0.87	 y(1,0,2) = 0.13	 
y(0,2,2) = 0.38	 y(2,0,2) = 0.62	 
y(1,2,2) = 0.08	 y(2,1,2) = 0.92	 
7.336537846926009 6.986093341648858 4
7.336537846926009 4.427964044052563 7
6.986093341648858 4.427964044052563 7
14.33653784692601 12.411707277356706 6
17.999999999999993 12.411707277356706 6
obj:  1.050437015270909
erro
[(0, 1), (1, 2), (2, 1), (1, 1), (2, 2), (0, 2)]
cliques:  0 mip: 45
C:  24.999999999999996
x(0,0) = 23.77	 x(0,1) = 6.38	 x(0,2) = 13.38	 
x(1,0) = 13.10	 x(1,1) = 9.10	 x(1,2) = 18.00	 
x(2,0) = 19.83	 x(2,1) = 4.85	 x(2,2) = 11.99	 
y(0,1,0) = 0.00	 y(1,0,0) = 1.00	 
y(0,2,0) = 0.11	 y(2,0,0) = 0.89	 
y(1,2,0) = 0.86	 y(2,1,0) = 0.14	 
y(0,1,1) = 0.66	 y(1,0,1) = 0.34	 
y(0,2,1) = 0.37	 y(2,0,1) = 0.63	 
y(1,2,1) = 0.24	 y(2,1,1) = 0.76	 
y(0,1,2) = 0.71	 y(1,0,2) = 0.29	 
y(0,2,2) = 0.27	 y(2,0,2) = 0.73	 
y(1,2,2) = 0.15	 y(2,1,2) = 0.85	 
6.381068247030922 4.849363535425381 7
9.098010307445367 4.849363535425381 7
13.381068247030921 11.991523477703948 6
obj:  1.0681927421078392
erro
[(0, 1), (1, 2), (2, 1), (1, 1), (2, 2), (0, 2)]
cliques:  0 mip: 45
C:  25.0
x(0,0) = 23.86	 x(0,1) = 7.39	 x(0,2) = 14.39	 
x(1,0) = 8.93	 x(1,1) = 4.79	 x(1,2) = 18.00	 
x(2,0) = 20.11	 x(2,1) = 4.87	 x(2,2) = 11.87	 
y(0,1,0) = -0.00	 y(1,0,0) = 1.00	 
y(0,2,0) = 0.07	 y(2,0,0) = 0.93	 
y(1,2,0) = 0.92	 y(2,1,0) = 0.08	 
y(0,1,1) = 0.40	 y(1,0,1) = 0.60	 
y(0,2,1) = 0.28	 y(2,0,1) = 0.72	 
y(1,2,1) = 0.30	 y(2,1,1) = 0.70	 
y(0,1,2) = 0.61	 y(1,0,2) = 0.39	 
y(0,2,2) = 0.15	 y(2,0,2) = 0.85	 
y(1,2,2) = 0.14	 y(2,1,2) = 0.86	 
7.390526584813197 4.789254076989116 4
7.390526584813197 4.872756799764449 7
14.3905265848132 11.87275679976445 6
obj:  1.0
erro
[(0, 1), (1, 2), (2, 1), (1, 1), (2, 2), (0, 2)]
cliques:  0 mip: 46
C:  25.000000000000004
x(0,0) = 22.85	 x(0,1) = 5.33	 x(0,2) = 12.33	 
x(1,0) = 13.07	 x(1,1) = 9.07	 x(1,2) = 18.00	 
x(2,0) = 18.19	 x(2,1) = 4.48	 x(2,2) = 11.88	 
y(0,1,0) = -0.00	 y(1,0,0) = 1.00	 
y(0,2,0) = 0.58	 y(2,0,0) = 0.42	 
y(1,2,0) = 0.25	 y(2,1,0) = 0.75	 
y(0,1,1) = 0.87	 y(1,0,1) = 0.13	 
y(0,2,1) = 0.35	 y(2,0,1) = 0.65	 
y(1,2,1) = 0.17	 y(2,1,1) = 0.83	 
y(0,1,2) = 0.95	 y(1,0,2) = 0.05	 
y(0,2,2) = 0.45	 y(2,0,2) = 0.55	 
y(1,2,2) = 0.07	 y(2,1,2) = 0.93	 
5.3337326629658 4.483371032596628 7
9.070068532765715 4.483371032596628 7
12.333732662965797 11.884223048849524 6
obj:  0.9999999999999978
erro
[(0, 1), (1, 2), (2, 1), (1, 1), (2, 2), (0, 2)]
cliques:  0 mip: 46
C:  25.000000000000004
x(0,0) = 23.59	 x(0,1) = 3.85	 x(0,2) = 12.56	 
x(1,0) = 14.96	 x(1,1) = 10.96	 x(1,2) = 18.00	 
x(2,0) = 18.75	 x(2,1) = 4.89	 x(2,2) = 12.67	 
y(0,1,0) = -0.00	 y(1,0,0) = 1.00	 
y(0,2,0) = 0.21	 y(2,0,0) = 0.79	 
y(1,2,0) = 0.30	 y(2,1,0) = 0.70	 
y(0,1,1) = 0.99	 y(1,0,1) = 0.01	 
y(0,2,1) = 0.60	 y(2,0,1) = 0.40	 
y(1,2,1) = 0.13	 y(2,1,1) = 0.87	 
y(0,1,2) = 0.82	 y(1,0,2) = 0.18	 
y(0,2,2) = 0.37	 y(2,0,2) = 0.63	 
y(1,2,2) = 0.13	 y(2,1,2) = 0.87	 
10.955097789096815 4.89261163758696 7
18.000000000000004 12.668530289873523 6
obj:  1.061981559588169
erro
[(0, 1), (1, 2), (2, 1), (2, 2), (0, 2)]
cliques:  0 mip: 47
C:  25.000000000000004
x(0,0) = 23.42	 x(0,1) = 5.05	 x(0,2) = 12.05	 
x(1,0) = 13.64	 x(1,1) = 9.64	 x(1,2) = 18.00	 
x(2,0) = 20.57	 x(2,1) = 5.10	 x(2,2) = 12.78	 
y(0,1,0) = -0.00	 y(1,0,0) = 1.00	 
y(0,2,0) = 0.29	 y(2,0,0) = 0.71	 
y(1,2,0) = 0.31	 y(2,1,0) = 0.69	 
y(0,1,1) = 0.73	 y(1,0,1) = 0.27	 
y(0,2,1) = 0.54	 y(2,0,1) = 0.46	 
y(1,2,1) = 0.25	 y(2,1,1) = 0.75	 
y(0,1,2) = 0.96	 y(1,0,2) = 0.04	 
y(0,2,2) = 0.52	 y(2,0,2) = 0.48	 
y(1,2,2) = 0.16	 y(2,1,2) = 0.84	 
9.644852549405654 5.098621690515489 7
18.000000000000004 12.78280986264606 6
obj:  1.0436768629803093
erro
[(0, 1), (1, 2), (2, 1), (1, 1), (2, 2), (0, 2)]
cliques:  0 mip: 0
iterações: 25 cortes cliques encontrados: 3 mip: 1034 objective:  25.000000000000004
Coin0506I Presolve 65 (-61) rows, 39 (-25) columns and 202 (-86) elements
Clp1000I sum of infeasibilities 3.24924e-06 - average 4.99884e-08, 0 fixed columns
Coin0506I Presolve 65 (0) rows, 39 (0) columns and 202 (0) elements
Clp0029I End of values pass after 39 iterations
Clp0000I Optimal - objective value 15
Clp0000I Optimal - objective value 15
Coin0511I After Postsolve, objective 15, infeasibilities - dual 0 (0), primal 0 (0)
Clp0000I Optimal - objective value 15
Clp0000I Optimal - objective value 15
Clp0000I Optimal - objective value 15
Coin0511I After Postsolve, objective 15, infeasibilities - dual 0 (0), primal 0 (0)
Clp0032I Optimal objective 15 - 0 iterations time 0.002, Presolve 0.00, Idiot 0.00
Coin3009W Conflict graph built in 0.000 seconds, density: 0.147%
